Problem:    11
Rows:       54
Columns:    53 (50 integer, 50 binary)
Non-zeros:  278
Status:     INTEGER OPTIMAL
Objective:  z = 1080 (MAXimum)

   No.   Row name        Activity     Lower bound   Upper bound
------ ------------    ------------- ------------- -------------
     1 assegnamento[1]
                                   0                           1 
     2 assegnamento[2]
                                   1                           1 
     3 assegnamento[3]
                                   1                           1 
     4 assegnamento[4]
                                   1                           1 
     5 assegnamento[5]
                                   1                           1 
     6 assegnamento[6]
                                   1                           1 
     7 assegnamento[7]
                                   1                           1 
     8 assegnamento[8]
                                   1                           1 
     9 assegnamento[9]
                                   0                           1 
    10 assegnamento[10]
                                   0                           1 
    11 assegnamento[11]
                                   0                           1 
    12 assegnamento[12]
                                   0                           1 
    13 assegnamento[13]
                                   0                           1 
    14 assegnamento[14]
                                   0                           1 
    15 assegnamento[15]
                                   0                           1 
    16 assegnamento[16]
                                   0                           1 
    17 assegnamento[17]
                                   0                           1 
    18 assegnamento[18]
                                   1                           1 
    19 assegnamento[19]
                                   1                           1 
    20 assegnamento[20]
                                   0                           1 
    21 assegnamento[21]
                                   0                           1 
    22 assegnamento[22]
                                   0                           1 
    23 assegnamento[23]
                                   0                           1 
    24 assegnamento[24]
                                   0                           1 
    25 assegnamento[25]
                                   0                           1 
    26 def_timeComizi
                                   0            -0             = 
    27 def_timeViaggio[1]
                                 2.5            -0               
    28 def_timeViaggio[2]
                                2.38            -0               
    29 def_timeViaggio[3]
                                2.25            -0               
    30 def_timeViaggio[4]
                                2.19            -0               
    31 def_timeViaggio[5]
                                2.04            -0               
    32 def_timeViaggio[6]
                                 1.9            -0               
    33 def_timeViaggio[7]
                                1.78            -0               
    34 def_timeViaggio[8]
                                1.61            -0               
    35 def_timeViaggio[9]
                                 2.5            -0               
    36 def_timeViaggio[10]
                                 2.5            -0               
    37 def_timeViaggio[11]
                                 2.5            -0               
    38 def_timeViaggio[12]
                                 2.5            -0               
    39 def_timeViaggio[13]
                                 2.5            -0               
    40 def_timeViaggio[14]
                                 2.5            -0               
    41 def_timeViaggio[15]
                                 2.5            -0               
    42 def_timeViaggio[16]
                                 2.5            -0               
    43 def_timeViaggio[17]
                                 2.5            -0               
    44 def_timeViaggio[18]
                                0.32            -0               
    45 def_timeViaggio[19]
                                 0.2            -0               
    46 def_timeViaggio[20]
                                 2.5            -0               
    47 def_timeViaggio[21]
                                 2.5            -0               
    48 def_timeViaggio[22]
                                 2.5            -0               
    49 def_timeViaggio[23]
                                 2.5            -0               
    50 def_timeViaggio[24]
                                 2.5            -0               
    51 def_timeViaggio[25]
                                 2.5            -0               
    52 def_timeFisso
                                   0            -0             = 
    53 tempoLimite                16                          16 
    54 z                        1080                             

   No. Column name       Activity     Lower bound   Upper bound
------ ------------    ------------- ------------- -------------
     1 x[1,1]       *              0             0             1 
     2 x[1,2]       *              0             0             1 
     3 x[2,1]       *              1             0             1 
     4 x[2,2]       *              0             0             1 
     5 x[3,1]       *              1             0             1 
     6 x[3,2]       *              0             0             1 
     7 x[4,1]       *              1             0             1 
     8 x[4,2]       *              0             0             1 
     9 x[5,1]       *              1             0             1 
    10 x[5,2]       *              0             0             1 
    11 x[6,1]       *              1             0             1 
    12 x[6,2]       *              0             0             1 
    13 x[7,1]       *              1             0             1 
    14 x[7,2]       *              0             0             1 
    15 x[8,1]       *              1             0             1 
    16 x[8,2]       *              0             0             1 
    17 x[9,1]       *              0             0             1 
    18 x[9,2]       *              0             0             1 
    19 x[10,1]      *              0             0             1 
    20 x[10,2]      *              0             0             1 
    21 x[11,1]      *              0             0             1 
    22 x[11,2]      *              0             0             1 
    23 x[12,1]      *              0             0             1 
    24 x[12,2]      *              0             0             1 
    25 x[13,1]      *              0             0             1 
    26 x[13,2]      *              0             0             1 
    27 x[14,1]      *              0             0             1 
    28 x[14,2]      *              0             0             1 
    29 x[15,1]      *              0             0             1 
    30 x[15,2]      *              0             0             1 
    31 x[16,1]      *              0             0             1 
    32 x[16,2]      *              0             0             1 
    33 x[17,1]      *              0             0             1 
    34 x[17,2]      *              0             0             1 
    35 x[18,1]      *              1             0             1 
    36 x[18,2]      *              0             0             1 
    37 x[19,1]      *              1             0             1 
    38 x[19,2]      *              0             0             1 
    39 x[20,1]      *              0             0             1 
    40 x[20,2]      *              0             0             1 
    41 x[21,1]      *              0             0             1 
    42 x[21,2]      *              0             0             1 
    43 x[22,1]      *              0             0             1 
    44 x[22,2]      *              0             0             1 
    45 x[23,1]      *              0             0             1 
    46 x[23,2]      *              0             0             1 
    47 x[24,1]      *              0             0             1 
    48 x[24,2]      *              0             0             1 
    49 x[25,1]      *              0             0             1 
    50 x[25,2]      *              0             0             1 
    51 timeComizi                  9             0               
    52 timeViaggio               2.5             0               
    53 timeFisso                 4.5             0               

Integer feasibility conditions:

KKT.PE: max.abs.err = 0.00e+000 on row 0
        max.rel.err = 0.00e+000 on row 0
        High quality

KKT.PB: max.abs.err = 0.00e+000 on row 0
        max.rel.err = 0.00e+000 on row 0
        High quality

End of output
